c Pigeonhole: 3 pigeons into 2 holes — classic small UNSAT instance.
c Good stress test: all clauses have size 2, so no unit-clause branch is taken.
p cnf 6 9
1 2 0
3 4 0
5 6 0
-1 -3 0
-1 -5 0
-3 -5 0
-2 -4 0
-2 -6 0
-4 -6 0